tsp_instances/TSP20/instance80.tsp
NODE_COORD_SECTION
0 86 78
1 86 123
2 141 82
3 61 31
4 28 40
5 66 13
6 188 78
7 77 23
8 84 156
9 90 168
10 22 44
11 134 131
12 28 130
13 184 38
14 167 162
15 151 154
16 54 59
17 107 17
18 57 17
19 115 39
