tsp_instances/TSP20/instance80.opt.tour
TOUR_SECTION
1
2
13
9
10
15
16
12
3
7
14
20
18
8
6
19
4
5
11
17
-1